42 87 26 37 11 0 72 41 38 22 81 48 98 29 75 5 27 57 52 91 60 39 34 88 18 70 15 8 96 82 45 79 64 16 7 83 47 68 12 89 97 74 31 67 19 51 77 65 33 25 10 40 59 99 2 50 56 14 58 17 1 95 36 85 55 32 54 78 35 62 46 84 73 69 66 49 3 20 92 30 43 80 76 24 21 6 44 23 28 4 71 53 61 93 13 94 63 86 90 9
